c ind 10 101 103 105 107 109 115 118 13 169 0
c ind 202 208 211 222 225 264 266 268 270 274 0
c ind 277 279 354 357 359 392 394 396 398 400 0
c ind 402 404 406 408 410 412 414 416 418 420 0
c ind 422 424 426 428 430 432 434 436 438 440 0
c ind 442 444 446 448 450 452 454 46 48 487 0
c ind 489 491 493 495 497 499 5 50 501 503 0
c ind 505 507 509 511 513 515 517 519 52 521 0
c ind 523 525 527 529 531 533 535 537 539 54 0
c ind 541 543 545 547 549 56 58 585 587 589 0
c ind 591 593 595 597 599 6 60 601 603 605 0
c ind 607 609 611 613 615 617 619 62 621 623 0
c ind 625 627 629 631 633 635 637 639 64 641 0
c ind 643 645 647 652 654 66 68 689 691 693 0
c ind 695 697 699 70 701 703 705 707 709 711 0
c ind 713 715 717 719 72 721 723 725 727 729 0
c ind 731 733 735 737 739 74 741 743 745 747 0
c ind 749 751 76 78 784 786 788 79 790 792 0
c ind 794 796 798 800 802 804 806 808 81 810 0
c ind 812 814 816 818 820 822 824 826 828 83 0
c ind 830 832 834 836 838 840 842 844 846 85 0
c ind 87 89 9 91 93 95 97 99 0
p cnf 846 2163
-1 -2 11 0
-1 2 752 0
-100 -101 79 0
-100 -79 101 0
-102 -103 79 0
-102 -79 103 0
-104 -105 79 0
-104 -79 105 0
-106 -107 79 0
-106 -79 107 0
-108 -109 79 0
-108 -79 109 0
-11 -12 14 0
-11 12 110 0
-110 -111 113 0
-110 111 752 0
-111 112 0
-111 3 0
-112 -13 5 0
-112 -5 13 0
-113 -114 14 0
-113 114 116 0
-114 -115 13 0
-114 -13 115 0
-116 -117 119 0
-116 117 166 0
-117 -118 13 0
-117 -13 118 0
-119 108 0
-119 120 0
-12 -13 9 0
-12 -9 13 0
-120 106 0
-120 121 0
-121 104 0
-121 122 0
-122 102 0
-122 123 0
-123 100 0
-123 124 0
-124 125 0
-124 98 0
-125 126 0
-125 96 0
-126 127 0
-126 94 0
-127 128 0
-127 92 0
-128 129 0
-128 90 0
-129 130 0
-129 88 0
-130 131 0
-130 86 0
-131 132 0
-131 84 0
-132 133 0
-132 82 0
-133 134 0
-133 80 0
-134 135 0
-134 77 0
-135 136 0
-135 165 0
-136 137 0
-136 164 0
-137 138 0
-137 163 0
-138 139 0
-138 162 0
-139 140 0
-139 161 0
-14 108 0
-14 15 0
-140 141 0
-140 160 0
-141 142 0
-141 159 0
-142 143 0
-142 158 0
-143 144 0
-143 157 0
-144 145 0
-144 156 0
-145 146 0
-145 155 0
-146 147 0
-146 154 0
-147 148 0
-147 153 0
-148 149 0
-148 152 0
-149 150 0
-149 151 0
-15 106 0
-15 16 0
-150 -46 79 0
-150 -79 46 0
-151 -48 79 0
-151 -79 48 0
-152 -50 79 0
-152 -79 50 0
-153 -52 79 0
-153 -79 52 0
-154 -54 79 0
-154 -79 54 0
-155 -56 79 0
-155 -79 56 0
-156 -58 79 0
-156 -79 58 0
-157 -60 79 0
-157 -79 60 0
-158 -62 79 0
-158 -79 62 0
-159 -64 79 0
-159 -79 64 0
-16 104 0
-16 17 0
-160 -66 79 0
-160 -79 66 0
-161 -68 79 0
-161 -79 68 0
-162 -70 79 0
-162 -79 70 0
-163 -72 79 0
-163 -79 72 0
-164 -74 79 0
-164 -79 74 0
-165 -76 79 0
-165 -79 76 0
-166 -167 204 0
-166 167 550 0
-167 168 0
-167 170 0
-168 -13 169 0
-168 -169 13 0
-17 102 0
-17 18 0
-170 171 0
-170 203 0
-171 172 0
-171 203 0
-172 173 0
-172 203 0
-173 174 0
-173 203 0
-174 175 0
-174 203 0
-175 176 0
-175 203 0
-176 177 0
-176 203 0
-177 178 0
-177 203 0
-178 179 0
-178 203 0
-179 180 0
-179 203 0
-18 100 0
-18 19 0
-180 181 0
-180 203 0
-181 182 0
-181 203 0
-182 183 0
-182 203 0
-183 184 0
-183 203 0
-184 185 0
-184 203 0
-185 186 0
-185 203 0
-186 187 0
-186 203 0
-187 188 0
-187 203 0
-188 189 0
-188 203 0
-189 190 0
-189 203 0
-19 20 0
-19 98 0
-190 191 0
-190 203 0
-191 192 0
-191 203 0
-192 193 0
-192 203 0
-193 194 0
-193 203 0
-194 195 0
-194 203 0
-195 196 0
-195 203 0
-196 197 0
-196 203 0
-197 198 0
-197 203 0
-198 199 0
-198 203 0
-199 200 0
-199 203 0
-2 3 7 0
-20 21 0
-20 96 0
-200 201 0
-200 203 0
-201 -202 79 0
-201 -79 202 0
-203 -79 79 0
-204 -205 212 0
-204 205 455 0
-205 206 209 0
-206 -207 0
-207 -208 6 0
-207 -6 208 0
-209 -210 0
-21 22 0
-21 94 0
-210 -10 211 0
-210 -211 10 0
-212 -213 14 0
-212 213 214 0
-213 -10 13 0
-213 -13 10 0
-214 -215 217 0
-214 215 455 0
-215 206 0
-215 216 0
-216 -13 6 0
-216 -6 13 0
-217 -218 351 0
-217 218 455 0
-218 -219 226 0
-218 219 232 0
-219 220 223 0
-22 23 0
-22 92 0
-220 -221 0
-221 -208 222 0
-221 -222 208 0
-223 -224 0
-224 -211 225 0
-224 -225 211 0
-226 -227 13 0
-226 227 228 0
-227 -13 211 0
-227 -211 13 0
-228 -229 231 0
-228 229 232 0
-229 220 0
-229 230 0
-23 24 0
-23 90 0
-230 -13 208 0
-230 -208 13 0
-231 -232 271 0
-231 232 280 0
-232 203 0
-232 233 0
-233 203 0
-233 234 0
-234 203 0
-234 235 0
-235 203 0
-235 236 0
-236 203 0
-236 237 0
-237 203 0
-237 238 0
-238 203 0
-238 239 0
-239 203 0
-239 240 0
-24 25 0
-24 88 0
-240 203 0
-240 241 0
-241 203 0
-241 242 0
-242 203 0
-242 243 0
-243 203 0
-243 244 0
-244 203 0
-244 245 0
-245 203 0
-245 246 0
-246 203 0
-246 247 0
-247 203 0
-247 248 0
-248 203 0
-248 249 0
-249 203 0
-249 250 0
-25 26 0
-25 86 0
-250 203 0
-250 251 0
-251 203 0
-251 252 0
-252 203 0
-252 253 0
-253 203 0
-253 254 0
-254 203 0
-254 255 0
-255 203 0
-255 256 0
-256 203 0
-256 257 0
-257 203 0
-257 258 0
-258 203 0
-258 259 0
-259 203 0
-259 260 0
-26 27 0
-26 84 0
-260 261 0
-260 269 0
-261 262 0
-261 267 0
-262 263 0
-262 265 0
-263 -264 79 0
-263 -79 264 0
-265 -266 79 0
-265 -79 266 0
-267 -268 79 0
-267 -79 268 0
-269 -270 79 0
-269 -79 270 0
-27 28 0
-27 82 0
-271 -272 79 0
-271 272 13 0
-272 273 275 0
-273 -13 274 0
-273 -274 13 0
-275 276 0
-275 278 0
-276 -13 277 0
-276 -277 13 0
-278 -13 279 0
-278 -279 13 0
-28 29 0
-28 80 0
-280 -281 285 0
-280 281 13 0
-281 269 0
-281 282 0
-282 267 0
-282 283 0
-283 265 0
-283 284 0
-284 -13 264 0
-284 -264 13 0
-285 -286 13 0
-285 286 79 0
-286 287 0
-286 319 0
-287 203 0
-287 288 0
-288 203 0
-288 289 0
-289 203 0
-289 290 0
-29 30 0
-29 77 0
-290 203 0
-290 291 0
-291 203 0
-291 292 0
-292 203 0
-292 293 0
-293 203 0
-293 294 0
-294 203 0
-294 295 0
-295 203 0
-295 296 0
-296 203 0
-296 297 0
-297 203 0
-297 298 0
-298 203 0
-298 299 0
-299 203 0
-299 300 0
-3 -4 0
-30 31 0
-30 75 0
-300 203 0
-300 301 0
-301 203 0
-301 302 0
-302 203 0
-302 303 0
-303 203 0
-303 304 0
-304 203 0
-304 305 0
-305 203 0
-305 306 0
-306 203 0
-306 307 0
-307 203 0
-307 308 0
-308 203 0
-308 309 0
-309 203 0
-309 310 0
-31 32 0
-31 73 0
-310 203 0
-310 311 0
-311 203 0
-311 312 0
-312 203 0
-312 313 0
-313 203 0
-313 314 0
-314 203 0
-314 315 0
-315 203 0
-315 316 0
-316 203 0
-316 317 0
-317 203 0
-317 318 0
-318 -274 79 0
-318 -79 274 0
-319 203 0
-319 320 0
-32 33 0
-32 71 0
-320 203 0
-320 321 0
-321 203 0
-321 322 0
-322 203 0
-322 323 0
-323 203 0
-323 324 0
-324 203 0
-324 325 0
-325 203 0
-325 326 0
-326 203 0
-326 327 0
-327 203 0
-327 328 0
-328 203 0
-328 329 0
-329 203 0
-329 330 0
-33 34 0
-33 69 0
-330 203 0
-330 331 0
-331 203 0
-331 332 0
-332 203 0
-332 333 0
-333 203 0
-333 334 0
-334 203 0
-334 335 0
-335 203 0
-335 336 0
-336 203 0
-336 337 0
-337 203 0
-337 338 0
-338 203 0
-338 339 0
-339 203 0
-339 340 0
-34 35 0
-34 67 0
-340 203 0
-340 341 0
-341 203 0
-341 342 0
-342 203 0
-342 343 0
-343 203 0
-343 344 0
-344 203 0
-344 345 0
-345 203 0
-345 346 0
-346 203 0
-346 347 0
-347 203 0
-347 348 0
-348 203 0
-348 349 0
-349 203 0
-349 350 0
-35 36 0
-35 65 0
-350 -279 79 0
-350 -79 279 0
-351 -352 360 0
-351 352 455 0
-352 353 355 0
-353 -13 354 0
-353 -354 13 0
-355 356 0
-355 358 0
-356 -13 357 0
-356 -357 13 0
-358 -13 359 0
-358 -359 13 0
-36 37 0
-36 63 0
-360 361 0
-360 453 0
-361 362 0
-361 451 0
-362 363 0
-362 449 0
-363 364 0
-363 447 0
-364 365 0
-364 445 0
-365 366 0
-365 443 0
-366 367 0
-366 441 0
-367 368 0
-367 439 0
-368 369 0
-368 437 0
-369 370 0
-369 435 0
-37 38 0
-37 61 0
-370 371 0
-370 433 0
-371 372 0
-371 431 0
-372 373 0
-372 429 0
-373 374 0
-373 427 0
-374 375 0
-374 425 0
-375 376 0
-375 423 0
-376 377 0
-376 421 0
-377 378 0
-377 419 0
-378 379 0
-378 417 0
-379 380 0
-379 415 0
-38 39 0
-38 59 0
-380 381 0
-380 413 0
-381 382 0
-381 411 0
-382 383 0
-382 409 0
-383 384 0
-383 407 0
-384 385 0
-384 405 0
-385 386 0
-385 403 0
-386 387 0
-386 401 0
-387 388 0
-387 399 0
-388 389 0
-388 397 0
-389 390 0
-389 395 0
-39 40 0
-39 57 0
-390 391 0
-390 393 0
-391 -392 46 0
-391 -46 392 0
-393 -394 48 0
-393 -48 394 0
-395 -396 50 0
-395 -50 396 0
-397 -398 52 0
-397 -52 398 0
-399 -400 54 0
-399 -54 400 0
-4 -5 6 0
-4 -6 5 0
-40 41 0
-40 55 0
-401 -402 56 0
-401 -56 402 0
-403 -404 58 0
-403 -58 404 0
-405 -406 60 0
-405 -60 406 0
-407 -408 62 0
-407 -62 408 0
-409 -410 64 0
-409 -64 410 0
-41 42 0
-41 53 0
-411 -412 66 0
-411 -66 412 0
-413 -414 68 0
-413 -68 414 0
-415 -416 70 0
-415 -70 416 0
-417 -418 72 0
-417 -72 418 0
-419 -420 74 0
-419 -74 420 0
-42 43 0
-42 51 0
-421 -422 76 0
-421 -76 422 0
-423 -424 78 0
-423 -78 424 0
-425 -426 81 0
-425 -81 426 0
-427 -428 83 0
-427 -83 428 0
-429 -430 85 0
-429 -85 430 0
-43 44 0
-43 49 0
-431 -432 87 0
-431 -87 432 0
-433 -434 89 0
-433 -89 434 0
-435 -436 91 0
-435 -91 436 0
-437 -438 93 0
-437 -93 438 0
-439 -440 95 0
-439 -95 440 0
-44 45 0
-44 47 0
-441 -442 97 0
-441 -97 442 0
-443 -444 99 0
-443 -99 444 0
-445 -101 446 0
-445 -446 101 0
-447 -103 448 0
-447 -448 103 0
-449 -105 450 0
-449 -450 105 0
-45 -13 46 0
-45 -46 13 0
-451 -107 452 0
-451 -452 107 0
-453 -109 454 0
-453 -454 109 0
-455 456 0
-455 548 0
-456 457 0
-456 546 0
-457 458 0
-457 544 0
-458 459 0
-458 542 0
-459 460 0
-459 540 0
-460 461 0
-460 538 0
-461 462 0
-461 536 0
-462 463 0
-462 534 0
-463 464 0
-463 532 0
-464 465 0
-464 530 0
-465 466 0
-465 528 0
-466 467 0
-466 526 0
-467 468 0
-467 524 0
-468 469 0
-468 522 0
-469 470 0
-469 520 0
-47 -13 48 0
-47 -48 13 0
-470 471 0
-470 518 0
-471 472 0
-471 516 0
-472 473 0
-472 514 0
-473 474 0
-473 512 0
-474 475 0
-474 510 0
-475 476 0
-475 508 0
-476 477 0
-476 506 0
-477 478 0
-477 504 0
-478 479 0
-478 502 0
-479 480 0
-479 500 0
-480 481 0
-480 498 0
-481 482 0
-481 496 0
-482 483 0
-482 494 0
-483 484 0
-483 492 0
-484 485 0
-484 490 0
-485 486 0
-485 488 0
-486 -46 487 0
-486 -487 46 0
-488 -48 489 0
-488 -489 48 0
-49 -13 50 0
-49 -50 13 0
-490 -491 50 0
-490 -50 491 0
-492 -493 52 0
-492 -52 493 0
-494 -495 54 0
-494 -54 495 0
-496 -497 56 0
-496 -56 497 0
-498 -499 58 0
-498 -58 499 0
-500 -501 60 0
-500 -60 501 0
-502 -503 62 0
-502 -62 503 0
-504 -505 64 0
-504 -64 505 0
-506 -507 66 0
-506 -66 507 0
-508 -509 68 0
-508 -68 509 0
-51 -13 52 0
-51 -52 13 0
-510 -511 70 0
-510 -70 511 0
-512 -513 72 0
-512 -72 513 0
-514 -515 74 0
-514 -74 515 0
-516 -517 76 0
-516 -76 517 0
-518 -519 78 0
-518 -78 519 0
-520 -521 81 0
-520 -81 521 0
-522 -523 83 0
-522 -83 523 0
-524 -525 85 0
-524 -85 525 0
-526 -527 87 0
-526 -87 527 0
-528 -529 89 0
-528 -89 529 0
-53 -13 54 0
-53 -54 13 0
-530 -531 91 0
-530 -91 531 0
-532 -533 93 0
-532 -93 533 0
-534 -535 95 0
-534 -95 535 0
-536 -537 97 0
-536 -97 537 0
-538 -539 99 0
-538 -99 539 0
-540 -101 541 0
-540 -541 101 0
-542 -103 543 0
-542 -543 103 0
-544 -105 545 0
-544 -545 105 0
-546 -107 547 0
-546 -547 107 0
-548 -109 549 0
-548 -549 109 0
-55 -13 56 0
-55 -56 13 0
-550 -551 553 0
-550 551 648 0
-551 168 0
-551 552 0
-552 -13 202 0
-552 -202 13 0
-553 554 0
-553 646 0
-554 555 0
-554 644 0
-555 556 0
-555 642 0
-556 557 0
-556 640 0
-557 558 0
-557 638 0
-558 559 0
-558 636 0
-559 560 0
-559 634 0
-560 561 0
-560 632 0
-561 562 0
-561 630 0
-562 563 0
-562 628 0
-563 564 0
-563 626 0
-564 565 0
-564 624 0
-565 566 0
-565 622 0
-566 567 0
-566 620 0
-567 568 0
-567 618 0
-568 569 0
-568 616 0
-569 570 0
-569 614 0
-57 -13 58 0
-57 -58 13 0
-570 571 0
-570 612 0
-571 572 0
-571 610 0
-572 573 0
-572 608 0
-573 574 0
-573 606 0
-574 575 0
-574 604 0
-575 576 0
-575 602 0
-576 577 0
-576 600 0
-577 578 0
-577 598 0
-578 579 0
-578 596 0
-579 580 0
-579 594 0
-580 581 0
-580 592 0
-581 582 0
-581 590 0
-582 583 0
-582 588 0
-583 584 0
-583 586 0
-584 -46 585 0
-584 -585 46 0
-586 -48 587 0
-586 -587 48 0
-588 -50 589 0
-588 -589 50 0
-59 -13 60 0
-59 -60 13 0
-590 -52 591 0
-590 -591 52 0
-592 -54 593 0
-592 -593 54 0
-594 -56 595 0
-594 -595 56 0
-596 -58 597 0
-596 -597 58 0
-598 -599 60 0
-598 -60 599 0
-600 -601 62 0
-600 -62 601 0
-602 -603 64 0
-602 -64 603 0
-604 -605 66 0
-604 -66 605 0
-606 -607 68 0
-606 -68 607 0
-608 -609 70 0
-608 -70 609 0
-61 -13 62 0
-61 -62 13 0
-610 -611 72 0
-610 -72 611 0
-612 -613 74 0
-612 -74 613 0
-614 -615 76 0
-614 -76 615 0
-616 -617 78 0
-616 -78 617 0
-618 -619 81 0
-618 -81 619 0
-620 -621 83 0
-620 -83 621 0
-622 -623 85 0
-622 -85 623 0
-624 -625 87 0
-624 -87 625 0
-626 -627 89 0
-626 -89 627 0
-628 -629 91 0
-628 -91 629 0
-63 -13 64 0
-63 -64 13 0
-630 -631 93 0
-630 -93 631 0
-632 -633 95 0
-632 -95 633 0
-634 -635 97 0
-634 -97 635 0
-636 -637 99 0
-636 -99 637 0
-638 -101 639 0
-638 -639 101 0
-640 -103 641 0
-640 -641 103 0
-642 -105 643 0
-642 -643 105 0
-644 -107 645 0
-644 -645 107 0
-646 -109 647 0
-646 -647 109 0
-648 -649 204 0
-648 649 655 0
-649 170 0
-649 650 0
-65 -13 66 0
-65 -66 13 0
-650 651 0
-650 653 0
-651 -13 652 0
-651 -652 13 0
-653 -13 654 0
-653 -654 13 0
-655 -656 553 0
-655 656 657 0
-656 552 0
-656 650 0
-657 658 0
-657 750 0
-658 659 0
-658 748 0
-659 660 0
-659 746 0
-660 661 0
-660 744 0
-661 662 0
-661 742 0
-662 663 0
-662 740 0
-663 664 0
-663 738 0
-664 665 0
-664 736 0
-665 666 0
-665 734 0
-666 667 0
-666 732 0
-667 668 0
-667 730 0
-668 669 0
-668 728 0
-669 670 0
-669 726 0
-67 -13 68 0
-67 -68 13 0
-670 671 0
-670 724 0
-671 672 0
-671 722 0
-672 673 0
-672 720 0
-673 674 0
-673 718 0
-674 675 0
-674 716 0
-675 676 0
-675 714 0
-676 677 0
-676 712 0
-677 678 0
-677 710 0
-678 679 0
-678 708 0
-679 680 0
-679 706 0
-680 681 0
-680 704 0
-681 682 0
-681 702 0
-682 683 0
-682 700 0
-683 684 0
-683 698 0
-684 685 0
-684 696 0
-685 686 0
-685 694 0
-686 687 0
-686 692 0
-687 688 0
-687 690 0
-688 -46 689 0
-688 -689 46 0
-69 -13 70 0
-69 -70 13 0
-690 -48 691 0
-690 -691 48 0
-692 -50 693 0
-692 -693 50 0
-694 -52 695 0
-694 -695 52 0
-696 -54 697 0
-696 -697 54 0
-698 -56 699 0
-698 -699 56 0
-7 -8 0
-700 -58 701 0
-700 -701 58 0
-702 -60 703 0
-702 -703 60 0
-704 -62 705 0
-704 -705 62 0
-706 -64 707 0
-706 -707 64 0
-708 -66 709 0
-708 -709 66 0
-71 -13 72 0
-71 -72 13 0
-710 -68 711 0
-710 -711 68 0
-712 -70 713 0
-712 -713 70 0
-714 -715 72 0
-714 -72 715 0
-716 -717 74 0
-716 -74 717 0
-718 -719 76 0
-718 -76 719 0
-720 -721 78 0
-720 -78 721 0
-722 -723 81 0
-722 -81 723 0
-724 -725 83 0
-724 -83 725 0
-726 -727 85 0
-726 -85 727 0
-728 -729 87 0
-728 -87 729 0
-73 -13 74 0
-73 -74 13 0
-730 -731 89 0
-730 -89 731 0
-732 -733 91 0
-732 -91 733 0
-734 -735 93 0
-734 -93 735 0
-736 -737 95 0
-736 -95 737 0
-738 -739 97 0
-738 -97 739 0
-740 -741 99 0
-740 -99 741 0
-742 -101 743 0
-742 -743 101 0
-744 -103 745 0
-744 -745 103 0
-746 -105 747 0
-746 -747 105 0
-748 -107 749 0
-748 -749 107 0
-75 -13 76 0
-75 -76 13 0
-750 -109 751 0
-750 -751 109 0
-752 753 0
-752 845 0
-753 754 0
-753 843 0
-754 755 0
-754 841 0
-755 756 0
-755 839 0
-756 757 0
-756 837 0
-757 758 0
-757 835 0
-758 759 0
-758 833 0
-759 760 0
-759 831 0
-760 761 0
-760 829 0
-761 762 0
-761 827 0
-762 763 0
-762 825 0
-763 764 0
-763 823 0
-764 765 0
-764 821 0
-765 766 0
-765 819 0
-766 767 0
-766 817 0
-767 768 0
-767 815 0
-768 769 0
-768 813 0
-769 770 0
-769 811 0
-77 -78 79 0
-77 -79 78 0
-770 771 0
-770 809 0
-771 772 0
-771 807 0
-772 773 0
-772 805 0
-773 774 0
-773 803 0
-774 775 0
-774 801 0
-775 776 0
-775 799 0
-776 777 0
-776 797 0
-777 778 0
-777 795 0
-778 779 0
-778 793 0
-779 780 0
-779 791 0
-780 781 0
-780 789 0
-781 782 0
-781 787 0
-782 783 0
-782 785 0
-783 -46 784 0
-783 -784 46 0
-785 -48 786 0
-785 -786 48 0
-787 -50 788 0
-787 -788 50 0
-789 -52 790 0
-789 -790 52 0
-79 0
-791 -54 792 0
-791 -792 54 0
-793 -56 794 0
-793 -794 56 0
-795 -58 796 0
-795 -796 58 0
-797 -60 798 0
-797 -798 60 0
-799 -62 800 0
-799 -800 62 0
-8 -10 9 0
-8 -9 10 0
-80 -79 81 0
-80 -81 79 0
-801 -64 802 0
-801 -802 64 0
-803 -66 804 0
-803 -804 66 0
-805 -68 806 0
-805 -806 68 0
-807 -70 808 0
-807 -808 70 0
-809 -72 810 0
-809 -810 72 0
-811 -74 812 0
-811 -812 74 0
-813 -76 814 0
-813 -814 76 0
-815 -78 816 0
-815 -816 78 0
-817 -81 818 0
-817 -818 81 0
-819 -820 83 0
-819 -83 820 0
-82 -79 83 0
-82 -83 79 0
-821 -822 85 0
-821 -85 822 0
-823 -824 87 0
-823 -87 824 0
-825 -826 89 0
-825 -89 826 0
-827 -828 91 0
-827 -91 828 0
-829 -830 93 0
-829 -93 830 0
-831 -832 95 0
-831 -95 832 0
-833 -834 97 0
-833 -97 834 0
-835 -836 99 0
-835 -99 836 0
-837 -101 838 0
-837 -838 101 0
-839 -103 840 0
-839 -840 103 0
-84 -79 85 0
-84 -85 79 0
-841 -105 842 0
-841 -842 105 0
-843 -107 844 0
-843 -844 107 0
-845 -109 846 0
-845 -846 109 0
-86 -79 87 0
-86 -87 79 0
-88 -79 89 0
-88 -89 79 0
-90 -79 91 0
-90 -91 79 0
-92 -79 93 0
-92 -93 79 0
-94 -79 95 0
-94 -95 79 0
-96 -79 97 0
-96 -97 79 0
-98 -79 99 0
-98 -99 79 0
1 -11 -752 0
1 -2 -11 0
1 0
1 2 -752 0
100 -101 -79 0
100 101 79 0
102 -103 -79 0
102 103 79 0
104 -105 -79 0
104 105 79 0
106 -107 -79 0
106 107 79 0
108 -109 -79 0
108 109 79 0
11 -12 -14 0
11 -14 -110 0
11 12 -110 0
110 -111 -113 0
110 -113 -752 0
110 111 -752 0
111 -3 -112 0
112 -5 -13 0
112 5 13 0
113 -114 -14 0
113 -14 -116 0
113 114 -116 0
114 -115 -13 0
114 115 13 0
116 -117 -119 0
116 -119 -166 0
116 117 -166 0
117 -118 -13 0
117 118 13 0
119 -120 -108 0
12 -9 -13 0
12 9 13 0
120 -121 -106 0
121 -122 -104 0
122 -123 -102 0
123 -124 -100 0
124 -125 -98 0
125 -126 -96 0
126 -127 -94 0
127 -128 -92 0
128 -129 -90 0
129 -130 -88 0
13 0
130 -131 -86 0
131 -132 -84 0
132 -133 -82 0
133 -134 -80 0
134 -135 -77 0
135 -136 -165 0
136 -137 -164 0
137 -138 -163 0
138 -139 -162 0
139 -140 -161 0
14 -15 -108 0
140 -141 -160 0
141 -142 -159 0
142 -143 -158 0
143 -144 -157 0
144 -145 -156 0
145 -146 -155 0
146 -147 -154 0
147 -148 -153 0
148 -149 -152 0
149 -150 -151 0
15 -16 -106 0
150 -46 -79 0
150 46 79 0
151 -48 -79 0
151 48 79 0
152 -50 -79 0
152 50 79 0
153 -52 -79 0
153 52 79 0
154 -54 -79 0
154 54 79 0
155 -56 -79 0
155 56 79 0
156 -58 -79 0
156 58 79 0
157 -60 -79 0
157 60 79 0
158 -62 -79 0
158 62 79 0
159 -64 -79 0
159 64 79 0
16 -17 -104 0
160 -66 -79 0
160 66 79 0
161 -68 -79 0
161 68 79 0
162 -70 -79 0
162 70 79 0
163 -72 -79 0
163 72 79 0
164 -74 -79 0
164 74 79 0
165 -76 -79 0
165 76 79 0
166 -167 -204 0
166 -204 -550 0
166 167 -550 0
167 -168 -170 0
168 -169 -13 0
168 169 13 0
17 -18 -102 0
170 -171 -203 0
171 -172 -203 0
172 -173 -203 0
173 -174 -203 0
174 -175 -203 0
175 -176 -203 0
176 -177 -203 0
177 -178 -203 0
178 -179 -203 0
179 -180 -203 0
18 -19 -100 0
180 -181 -203 0
181 -182 -203 0
182 -183 -203 0
183 -184 -203 0
184 -185 -203 0
185 -186 -203 0
186 -187 -203 0
187 -188 -203 0
188 -189 -203 0
189 -190 -203 0
19 -20 -98 0
190 -191 -203 0
191 -192 -203 0
192 -193 -203 0
193 -194 -203 0
194 -195 -203 0
195 -196 -203 0
196 -197 -203 0
197 -198 -203 0
198 -199 -203 0
199 -200 -203 0
2 -3 0
2 -7 0
20 -21 -96 0
200 -201 -203 0
201 -202 -79 0
201 202 79 0
203 -79 -79 0
203 79 79 0
204 -205 -212 0
204 -212 -455 0
204 205 -455 0
205 -206 0
205 -209 0
206 207 0
207 -6 -208 0
207 6 208 0
209 210 0
21 -22 -94 0
210 -10 -211 0
210 10 211 0
212 -14 -214 0
212 -213 -14 0
212 213 -214 0
213 -10 -13 0
213 10 13 0
214 -215 -217 0
214 -217 -455 0
214 215 -455 0
215 -206 -216 0
216 -6 -13 0
216 6 13 0
217 -218 -351 0
217 -351 -455 0
217 218 -455 0
218 -219 -226 0
218 -226 -232 0
218 219 -232 0
219 -220 0
219 -223 0
22 -23 -92 0
220 221 0
221 -208 -222 0
221 208 222 0
223 224 0
224 -211 -225 0
224 211 225 0
226 -13 -228 0
226 -227 -13 0
226 227 -228 0
227 -211 -13 0
227 211 13 0
228 -229 -231 0
228 -231 -232 0
228 229 -232 0
229 -220 -230 0
23 -24 -90 0
230 -208 -13 0
230 208 13 0
231 -232 -271 0
231 -271 -280 0
231 232 -280 0
232 -233 -203 0
233 -234 -203 0
234 -235 -203 0
235 -236 -203 0
236 -237 -203 0
237 -238 -203 0
238 -239 -203 0
239 -240 -203 0
24 -25 -88 0
240 -241 -203 0
241 -242 -203 0
242 -243 -203 0
243 -244 -203 0
244 -245 -203 0
245 -246 -203 0
246 -247 -203 0
247 -248 -203 0
248 -249 -203 0
249 -250 -203 0
25 -26 -86 0
250 -251 -203 0
251 -252 -203 0
252 -253 -203 0
253 -254 -203 0
254 -255 -203 0
255 -256 -203 0
256 -257 -203 0
257 -258 -203 0
258 -259 -203 0
259 -260 -203 0
26 -27 -84 0
260 -261 -269 0
261 -262 -267 0
262 -263 -265 0
263 -264 -79 0
263 264 79 0
265 -266 -79 0
265 266 79 0
267 -268 -79 0
267 268 79 0
269 -270 -79 0
269 270 79 0
27 -28 -82 0
271 -272 -79 0
271 -79 -13 0
271 272 -13 0
272 -273 0
272 -275 0
273 -274 -13 0
273 274 13 0
275 -276 -278 0
276 -277 -13 0
276 277 13 0
278 -279 -13 0
278 279 13 0
28 -29 -80 0
280 -281 -285 0
280 -285 -13 0
280 281 -13 0
281 -282 -269 0
282 -283 -267 0
283 -284 -265 0
284 -264 -13 0
284 264 13 0
285 -13 -79 0
285 -286 -13 0
285 286 -79 0
286 -287 -319 0
287 -288 -203 0
288 -289 -203 0
289 -290 -203 0
29 -30 -77 0
290 -291 -203 0
291 -292 -203 0
292 -293 -203 0
293 -294 -203 0
294 -295 -203 0
295 -296 -203 0
296 -297 -203 0
297 -298 -203 0
298 -299 -203 0
299 -300 -203 0
3 4 0
30 -31 -75 0
300 -301 -203 0
301 -302 -203 0
302 -303 -203 0
303 -304 -203 0
304 -305 -203 0
305 -306 -203 0
306 -307 -203 0
307 -308 -203 0
308 -309 -203 0
309 -310 -203 0
31 -32 -73 0
310 -311 -203 0
311 -312 -203 0
312 -313 -203 0
313 -314 -203 0
314 -315 -203 0
315 -316 -203 0
316 -317 -203 0
317 -318 -203 0
318 -274 -79 0
318 274 79 0
319 -320 -203 0
32 -33 -71 0
320 -321 -203 0
321 -322 -203 0
322 -323 -203 0
323 -324 -203 0
324 -325 -203 0
325 -326 -203 0
326 -327 -203 0
327 -328 -203 0
328 -329 -203 0
329 -330 -203 0
33 -34 -69 0
330 -331 -203 0
331 -332 -203 0
332 -333 -203 0
333 -334 -203 0
334 -335 -203 0
335 -336 -203 0
336 -337 -203 0
337 -338 -203 0
338 -339 -203 0
339 -340 -203 0
34 -35 -67 0
340 -341 -203 0
341 -342 -203 0
342 -343 -203 0
343 -344 -203 0
344 -345 -203 0
345 -346 -203 0
346 -347 -203 0
347 -348 -203 0
348 -349 -203 0
349 -350 -203 0
35 -36 -65 0
350 -279 -79 0
350 279 79 0
351 -352 -360 0
351 -360 -455 0
351 352 -455 0
352 -353 0
352 -355 0
353 -354 -13 0
353 354 13 0
355 -356 -358 0
356 -357 -13 0
356 357 13 0
358 -359 -13 0
358 359 13 0
36 -37 -63 0
360 -361 -453 0
361 -362 -451 0
362 -363 -449 0
363 -364 -447 0
364 -365 -445 0
365 -366 -443 0
366 -367 -441 0
367 -368 -439 0
368 -369 -437 0
369 -370 -435 0
37 -38 -61 0
370 -371 -433 0
371 -372 -431 0
372 -373 -429 0
373 -374 -427 0
374 -375 -425 0
375 -376 -423 0
376 -377 -421 0
377 -378 -419 0
378 -379 -417 0
379 -380 -415 0
38 -39 -59 0
380 -381 -413 0
381 -382 -411 0
382 -383 -409 0
383 -384 -407 0
384 -385 -405 0
385 -386 -403 0
386 -387 -401 0
387 -388 -399 0
388 -389 -397 0
389 -390 -395 0
39 -40 -57 0
390 -391 -393 0
391 -46 -392 0
391 46 392 0
393 -48 -394 0
393 48 394 0
395 -50 -396 0
395 50 396 0
397 -52 -398 0
397 52 398 0
399 -54 -400 0
399 54 400 0
4 -5 -6 0
4 5 6 0
40 -41 -55 0
401 -56 -402 0
401 56 402 0
403 -58 -404 0
403 58 404 0
405 -60 -406 0
405 60 406 0
407 -62 -408 0
407 62 408 0
409 -64 -410 0
409 64 410 0
41 -42 -53 0
411 -66 -412 0
411 66 412 0
413 -68 -414 0
413 68 414 0
415 -70 -416 0
415 70 416 0
417 -72 -418 0
417 72 418 0
419 -74 -420 0
419 74 420 0
42 -43 -51 0
421 -76 -422 0
421 76 422 0
423 -78 -424 0
423 78 424 0
425 -81 -426 0
425 81 426 0
427 -83 -428 0
427 83 428 0
429 -85 -430 0
429 85 430 0
43 -44 -49 0
431 -87 -432 0
431 87 432 0
433 -89 -434 0
433 89 434 0
435 -91 -436 0
435 91 436 0
437 -93 -438 0
437 93 438 0
439 -95 -440 0
439 95 440 0
44 -45 -47 0
441 -97 -442 0
441 97 442 0
443 -99 -444 0
443 99 444 0
445 -101 -446 0
445 101 446 0
447 -103 -448 0
447 103 448 0
449 -105 -450 0
449 105 450 0
45 -46 -13 0
45 46 13 0
451 -107 -452 0
451 107 452 0
453 -109 -454 0
453 109 454 0
455 -456 -548 0
456 -457 -546 0
457 -458 -544 0
458 -459 -542 0
459 -460 -540 0
460 -461 -538 0
461 -462 -536 0
462 -463 -534 0
463 -464 -532 0
464 -465 -530 0
465 -466 -528 0
466 -467 -526 0
467 -468 -524 0
468 -469 -522 0
469 -470 -520 0
47 -48 -13 0
47 48 13 0
470 -471 -518 0
471 -472 -516 0
472 -473 -514 0
473 -474 -512 0
474 -475 -510 0
475 -476 -508 0
476 -477 -506 0
477 -478 -504 0
478 -479 -502 0
479 -480 -500 0
480 -481 -498 0
481 -482 -496 0
482 -483 -494 0
483 -484 -492 0
484 -485 -490 0
485 -486 -488 0
486 -46 -487 0
486 46 487 0
488 -48 -489 0
488 48 489 0
49 -50 -13 0
49 50 13 0
490 -50 -491 0
490 50 491 0
492 -52 -493 0
492 52 493 0
494 -54 -495 0
494 54 495 0
496 -56 -497 0
496 56 497 0
498 -58 -499 0
498 58 499 0
500 -60 -501 0
500 60 501 0
502 -62 -503 0
502 62 503 0
504 -64 -505 0
504 64 505 0
506 -66 -507 0
506 66 507 0
508 -68 -509 0
508 68 509 0
51 -52 -13 0
51 52 13 0
510 -70 -511 0
510 70 511 0
512 -72 -513 0
512 72 513 0
514 -74 -515 0
514 74 515 0
516 -76 -517 0
516 76 517 0
518 -78 -519 0
518 78 519 0
520 -81 -521 0
520 81 521 0
522 -83 -523 0
522 83 523 0
524 -85 -525 0
524 85 525 0
526 -87 -527 0
526 87 527 0
528 -89 -529 0
528 89 529 0
53 -54 -13 0
53 54 13 0
530 -91 -531 0
530 91 531 0
532 -93 -533 0
532 93 533 0
534 -95 -535 0
534 95 535 0
536 -97 -537 0
536 97 537 0
538 -99 -539 0
538 99 539 0
540 -101 -541 0
540 101 541 0
542 -103 -543 0
542 103 543 0
544 -105 -545 0
544 105 545 0
546 -107 -547 0
546 107 547 0
548 -109 -549 0
548 109 549 0
55 -56 -13 0
55 56 13 0
550 -551 -553 0
550 -553 -648 0
550 551 -648 0
551 -168 -552 0
552 -202 -13 0
552 202 13 0
553 -554 -646 0
554 -555 -644 0
555 -556 -642 0
556 -557 -640 0
557 -558 -638 0
558 -559 -636 0
559 -560 -634 0
560 -561 -632 0
561 -562 -630 0
562 -563 -628 0
563 -564 -626 0
564 -565 -624 0
565 -566 -622 0
566 -567 -620 0
567 -568 -618 0
568 -569 -616 0
569 -570 -614 0
57 -58 -13 0
57 58 13 0
570 -571 -612 0
571 -572 -610 0
572 -573 -608 0
573 -574 -606 0
574 -575 -604 0
575 -576 -602 0
576 -577 -600 0
577 -578 -598 0
578 -579 -596 0
579 -580 -594 0
580 -581 -592 0
581 -582 -590 0
582 -583 -588 0
583 -584 -586 0
584 -46 -585 0
584 46 585 0
586 -48 -587 0
586 48 587 0
588 -50 -589 0
588 50 589 0
59 -60 -13 0
59 60 13 0
590 -52 -591 0
590 52 591 0
592 -54 -593 0
592 54 593 0
594 -56 -595 0
594 56 595 0
596 -58 -597 0
596 58 597 0
598 -60 -599 0
598 60 599 0
600 -62 -601 0
600 62 601 0
602 -64 -603 0
602 64 603 0
604 -66 -605 0
604 66 605 0
606 -68 -607 0
606 68 607 0
608 -70 -609 0
608 70 609 0
61 -62 -13 0
61 62 13 0
610 -72 -611 0
610 72 611 0
612 -74 -613 0
612 74 613 0
614 -76 -615 0
614 76 615 0
616 -78 -617 0
616 78 617 0
618 -81 -619 0
618 81 619 0
620 -83 -621 0
620 83 621 0
622 -85 -623 0
622 85 623 0
624 -87 -625 0
624 87 625 0
626 -89 -627 0
626 89 627 0
628 -91 -629 0
628 91 629 0
63 -64 -13 0
63 64 13 0
630 -93 -631 0
630 93 631 0
632 -95 -633 0
632 95 633 0
634 -97 -635 0
634 97 635 0
636 -99 -637 0
636 99 637 0
638 -101 -639 0
638 101 639 0
640 -103 -641 0
640 103 641 0
642 -105 -643 0
642 105 643 0
644 -107 -645 0
644 107 645 0
646 -109 -647 0
646 109 647 0
648 -204 -655 0
648 -649 -204 0
648 649 -655 0
649 -650 -170 0
65 -66 -13 0
65 66 13 0
650 -651 -653 0
651 -652 -13 0
651 652 13 0
653 -654 -13 0
653 654 13 0
655 -553 -657 0
655 -656 -553 0
655 656 -657 0
656 -650 -552 0
657 -658 -750 0
658 -659 -748 0
659 -660 -746 0
660 -661 -744 0
661 -662 -742 0
662 -663 -740 0
663 -664 -738 0
664 -665 -736 0
665 -666 -734 0
666 -667 -732 0
667 -668 -730 0
668 -669 -728 0
669 -670 -726 0
67 -68 -13 0
67 68 13 0
670 -671 -724 0
671 -672 -722 0
672 -673 -720 0
673 -674 -718 0
674 -675 -716 0
675 -676 -714 0
676 -677 -712 0
677 -678 -710 0
678 -679 -708 0
679 -680 -706 0
680 -681 -704 0
681 -682 -702 0
682 -683 -700 0
683 -684 -698 0
684 -685 -696 0
685 -686 -694 0
686 -687 -692 0
687 -688 -690 0
688 -46 -689 0
688 46 689 0
69 -70 -13 0
69 70 13 0
690 -48 -691 0
690 48 691 0
692 -50 -693 0
692 50 693 0
694 -52 -695 0
694 52 695 0
696 -54 -697 0
696 54 697 0
698 -56 -699 0
698 56 699 0
7 8 0
700 -58 -701 0
700 58 701 0
702 -60 -703 0
702 60 703 0
704 -62 -705 0
704 62 705 0
706 -64 -707 0
706 64 707 0
708 -66 -709 0
708 66 709 0
71 -72 -13 0
71 72 13 0
710 -68 -711 0
710 68 711 0
712 -70 -713 0
712 70 713 0
714 -72 -715 0
714 72 715 0
716 -74 -717 0
716 74 717 0
718 -76 -719 0
718 76 719 0
720 -78 -721 0
720 78 721 0
722 -81 -723 0
722 81 723 0
724 -83 -725 0
724 83 725 0
726 -85 -727 0
726 85 727 0
728 -87 -729 0
728 87 729 0
73 -74 -13 0
73 74 13 0
730 -89 -731 0
730 89 731 0
732 -91 -733 0
732 91 733 0
734 -93 -735 0
734 93 735 0
736 -95 -737 0
736 95 737 0
738 -97 -739 0
738 97 739 0
740 -99 -741 0
740 99 741 0
742 -101 -743 0
742 101 743 0
744 -103 -745 0
744 103 745 0
746 -105 -747 0
746 105 747 0
748 -107 -749 0
748 107 749 0
75 -76 -13 0
75 76 13 0
750 -109 -751 0
750 109 751 0
752 -753 -845 0
753 -754 -843 0
754 -755 -841 0
755 -756 -839 0
756 -757 -837 0
757 -758 -835 0
758 -759 -833 0
759 -760 -831 0
760 -761 -829 0
761 -762 -827 0
762 -763 -825 0
763 -764 -823 0
764 -765 -821 0
765 -766 -819 0
766 -767 -817 0
767 -768 -815 0
768 -769 -813 0
769 -770 -811 0
77 -78 -79 0
77 78 79 0
770 -771 -809 0
771 -772 -807 0
772 -773 -805 0
773 -774 -803 0
774 -775 -801 0
775 -776 -799 0
776 -777 -797 0
777 -778 -795 0
778 -779 -793 0
779 -780 -791 0
780 -781 -789 0
781 -782 -787 0
782 -783 -785 0
783 -46 -784 0
783 46 784 0
785 -48 -786 0
785 48 786 0
787 -50 -788 0
787 50 788 0
789 -52 -790 0
789 52 790 0
791 -54 -792 0
791 54 792 0
793 -56 -794 0
793 56 794 0
795 -58 -796 0
795 58 796 0
797 -60 -798 0
797 60 798 0
799 -62 -800 0
799 62 800 0
8 -9 -10 0
8 9 10 0
80 -81 -79 0
80 81 79 0
801 -64 -802 0
801 64 802 0
803 -66 -804 0
803 66 804 0
805 -68 -806 0
805 68 806 0
807 -70 -808 0
807 70 808 0
809 -72 -810 0
809 72 810 0
811 -74 -812 0
811 74 812 0
813 -76 -814 0
813 76 814 0
815 -78 -816 0
815 78 816 0
817 -81 -818 0
817 81 818 0
819 -83 -820 0
819 83 820 0
82 -83 -79 0
82 83 79 0
821 -85 -822 0
821 85 822 0
823 -87 -824 0
823 87 824 0
825 -89 -826 0
825 89 826 0
827 -91 -828 0
827 91 828 0
829 -93 -830 0
829 93 830 0
831 -95 -832 0
831 95 832 0
833 -97 -834 0
833 97 834 0
835 -99 -836 0
835 99 836 0
837 -101 -838 0
837 101 838 0
839 -103 -840 0
839 103 840 0
84 -85 -79 0
84 85 79 0
841 -105 -842 0
841 105 842 0
843 -107 -844 0
843 107 844 0
845 -109 -846 0
845 109 846 0
86 -87 -79 0
86 87 79 0
88 -89 -79 0
88 89 79 0
90 -91 -79 0
90 91 79 0
92 -93 -79 0
92 93 79 0
94 -95 -79 0
94 95 79 0
96 -97 -79 0
96 97 79 0
98 -99 -79 0
98 99 79 0
